<number of tasks>
20

<cycle time>
1000

<order strength>
0,189


<task times>
1 293
2 113
3 231
4 502
5 222
6 481
7 231
8 342
9 29
10 31
11 87
12 265
13 176
14 174
15 212
16 144
17 310
18 580
19 201
20 478

<precedence relations>
1,9
3,10
5,7
6,8
7,11
9,13
10,12
11,14
11,15
14,16
14,17
14,20
15,18
15,19

<end>
